(set-info :source |printed by MathSAT|)
(declare-fun call_illinois.ite45 () Int)
(declare-fun _OK_ () Bool)
(declare-fun invalid () Int)
(declare-fun param_e8 () Bool)
(declare-fun call_illinois.g5 () Bool)
(declare-fun call_illinois.ite38 () Int)
(declare-fun call_illinois.ite42 () Int)
(declare-fun param_e5 () Bool)
(declare-fun call_illinois.flby4 () Int)
(declare-fun call_illinois.ite35 () Int)
(declare-fun param_e9 () Bool)
(declare-fun call_illinois.ite5 () Int)
(declare-fun call_illinois.ite14 () Int)
(declare-fun call_illinois.ite31 () Int)
(declare-fun call_Sofar.flby () Bool)
(declare-fun call_illinois.flby3 () Int)
(declare-fun call_illinois.ite30 () Int)
(declare-fun param_e6 () Bool)
(declare-fun call_illinois.ite6 () Int)
(declare-fun call_illinois.ite17 () Int)
(declare-fun call_illinois.ite36 () Int)
(declare-fun call_illinois.g6 () Bool)
(declare-fun call_illinois.ite28 () Int)
(declare-fun call_illinois.ite47 () Int)
(declare-fun call_illinois.ite39 () Int)
(declare-fun call_excludes9.excludes () Bool)
(declare-fun call_illinois.ite40 () Int)
(declare-fun call_illinois.ite2 () Int)
(declare-fun call_illinois.ite21 () Int)
(declare-fun call_illinois.ite9 () Int)
(declare-fun call_illinois.ite26 () Int)
(declare-fun call_illinois.ite34 () Int)
(declare-fun call_illinois.ite16 () Int)
(declare-fun call_illinois.ite10 () Int)
(declare-fun call_illinois.ite25 () Int)
(declare-fun call_illinois.ite43 () Int)
(declare-fun call_illinois.ite8 () Int)
(declare-fun call_illinois.invalid () Int)
(declare-fun call_illinois.ite44 () Int)
(declare-fun call_illinois.ite23 () Int)
(declare-fun exclusive () Int)
(declare-fun param_e3 () Bool)
(declare-fun call_illinois.ite20 () Int)
(declare-fun call_illinois.ite18 () Int)
(declare-fun dirty () Int)
(declare-fun call_illinois.ite22 () Int)
(declare-fun call_illinois.ite4 () Int)
(declare-fun call_illinois.ite7 () Int)
(declare-fun call_illinois.exclusive () Int)
(declare-fun call_illinois.ite15 () Int)
(declare-fun param_e7 () Bool)
(declare-fun call_illinois.ite41 () Int)
(declare-fun call_illinois.dirty () Int)
(declare-fun call_Sofar.Sofar () Bool)
(declare-fun call_illinois.ite24 () Int)
(declare-fun call_illinois.ite11 () Int)
(declare-fun call_illinois.ite13 () Int)
(declare-fun call_illinois.flby () Int)
(declare-fun param_e4 () Bool)
(declare-fun call_illinois.ite33 () Int)
(declare-fun call_illinois.ite27 () Int)
(declare-fun call_illinois.ite46 () Int)
(declare-fun shared () Int)
(declare-fun call_illinois.ite () Int)
(declare-fun param_init_invalid () Int)
(declare-fun call_illinois.ite19 () Int)
(declare-fun call_illinois.ite3 () Int)
(declare-fun call_illinois.ite37 () Int)
(declare-fun call_illinois.ite12 () Int)
(declare-fun param_e1 () Bool)
(declare-fun call_illinois.ite32 () Int)
(declare-fun env () Bool)
(declare-fun param_e2 () Bool)
(declare-fun call_illinois.flby2 () Int)
(declare-fun call_illinois.shared () Int)
(declare-fun call_illinois.ite29 () Int)
(define-fun .def_1263 () Bool (= call_Sofar.flby call_Sofar.Sofar))
(define-fun .def_1079 () Bool (not param_e3))
(define-fun .def_1051 () Bool (not param_e2))
(define-fun .def_1244 () Bool (and .def_1051 .def_1079))
(define-fun .def_1105 () Bool (not param_e4))
(define-fun .def_1245 () Bool (and .def_1105 .def_1244))
(define-fun .def_1123 () Bool (not param_e5))
(define-fun .def_1246 () Bool (and .def_1123 .def_1245))
(define-fun .def_1148 () Bool (not param_e6))
(define-fun .def_1247 () Bool (and .def_1148 .def_1246))
(define-fun .def_942 () Bool (not param_e7))
(define-fun .def_1248 () Bool (and .def_942 .def_1247))
(define-fun .def_949 () Bool (not param_e8))
(define-fun .def_1249 () Bool (and .def_949 .def_1248))
(define-fun .def_931 () Bool (not param_e9))
(define-fun .def_1250 () Bool (and .def_931 .def_1249))
(define-fun .def_1032 () Bool (not param_e1))
(define-fun .def_1251 () Bool (or .def_1032 .def_1250))
(define-fun .def_1236 () Bool (and param_e1 .def_1051))
(define-fun .def_1237 () Bool (and .def_1079 .def_1236))
(define-fun .def_1238 () Bool (and .def_1105 .def_1237))
(define-fun .def_1239 () Bool (and .def_1123 .def_1238))
(define-fun .def_1240 () Bool (and .def_1148 .def_1239))
(define-fun .def_1241 () Bool (and .def_942 .def_1240))
(define-fun .def_1242 () Bool (and .def_949 .def_1241))
(define-fun .def_1243 () Bool (and .def_931 .def_1242))
(define-fun .def_1252 () Bool (or .def_1243 .def_1251))
(define-fun .def_1228 () Bool (and .def_1032 param_e2))
(define-fun .def_1229 () Bool (and .def_1079 .def_1228))
(define-fun .def_1230 () Bool (and .def_1105 .def_1229))
(define-fun .def_1231 () Bool (and .def_1123 .def_1230))
(define-fun .def_1232 () Bool (and .def_1148 .def_1231))
(define-fun .def_1233 () Bool (and .def_942 .def_1232))
(define-fun .def_1234 () Bool (and .def_949 .def_1233))
(define-fun .def_1235 () Bool (and .def_931 .def_1234))
(define-fun .def_1253 () Bool (or .def_1235 .def_1252))
(define-fun .def_1193 () Bool (and .def_1032 .def_1051))
(define-fun .def_1221 () Bool (and param_e3 .def_1193))
(define-fun .def_1222 () Bool (and .def_1105 .def_1221))
(define-fun .def_1223 () Bool (and .def_1123 .def_1222))
(define-fun .def_1224 () Bool (and .def_1148 .def_1223))
(define-fun .def_1225 () Bool (and .def_942 .def_1224))
(define-fun .def_1226 () Bool (and .def_949 .def_1225))
(define-fun .def_1227 () Bool (and .def_931 .def_1226))
(define-fun .def_1254 () Bool (or .def_1227 .def_1253))
(define-fun .def_1194 () Bool (and .def_1079 .def_1193))
(define-fun .def_1215 () Bool (and param_e4 .def_1194))
(define-fun .def_1216 () Bool (and .def_1123 .def_1215))
(define-fun .def_1217 () Bool (and .def_1148 .def_1216))
(define-fun .def_1218 () Bool (and .def_942 .def_1217))
(define-fun .def_1219 () Bool (and .def_949 .def_1218))
(define-fun .def_1220 () Bool (and .def_931 .def_1219))
(define-fun .def_1255 () Bool (or .def_1220 .def_1254))
(define-fun .def_1195 () Bool (and .def_1105 .def_1194))
(define-fun .def_1210 () Bool (and param_e5 .def_1195))
(define-fun .def_1211 () Bool (and .def_1148 .def_1210))
(define-fun .def_1212 () Bool (and .def_942 .def_1211))
(define-fun .def_1213 () Bool (and .def_949 .def_1212))
(define-fun .def_1214 () Bool (and .def_931 .def_1213))
(define-fun .def_1256 () Bool (or .def_1214 .def_1255))
(define-fun .def_1196 () Bool (and .def_1123 .def_1195))
(define-fun .def_1206 () Bool (and param_e6 .def_1196))
(define-fun .def_1207 () Bool (and .def_942 .def_1206))
(define-fun .def_1208 () Bool (and .def_949 .def_1207))
(define-fun .def_1209 () Bool (and .def_931 .def_1208))
(define-fun .def_1257 () Bool (or .def_1209 .def_1256))
(define-fun .def_1197 () Bool (and .def_1148 .def_1196))
(define-fun .def_1203 () Bool (and param_e7 .def_1197))
(define-fun .def_1204 () Bool (and .def_949 .def_1203))
(define-fun .def_1205 () Bool (and .def_931 .def_1204))
(define-fun .def_1258 () Bool (or .def_1205 .def_1257))
(define-fun .def_1198 () Bool (and .def_942 .def_1197))
(define-fun .def_1201 () Bool (and param_e8 .def_1198))
(define-fun .def_1202 () Bool (and .def_931 .def_1201))
(define-fun .def_1259 () Bool (or .def_1202 .def_1258))
(define-fun .def_1199 () Bool (and .def_949 .def_1198))
(define-fun .def_1200 () Bool (and param_e9 .def_1199))
(define-fun .def_1260 () Bool (or .def_1200 .def_1259))
(define-fun .def_1261 () Bool (= call_excludes9.excludes .def_1260))
(define-fun .def_1191 () Bool (= call_illinois.flby4 call_illinois.shared))
(define-fun .def_1189 () Bool (= call_illinois.flby3 call_illinois.exclusive))
(define-fun .def_1187 () Bool (= call_illinois.flby2 call_illinois.dirty))
(define-fun .def_1185 () Bool (= call_illinois.flby call_illinois.invalid))
(define-fun .def_1181 () Bool (= call_illinois.ite11 call_illinois.ite8))
(define-fun .def_1182 () Bool (or .def_949 .def_1181))
(define-fun .def_1178 () Bool (= call_illinois.ite10 call_illinois.ite11))
(define-fun .def_1179 () Bool (or param_e8 .def_1178))
(define-fun .def_1183 () Bool (and .def_1179 .def_1182))
(define-fun .def_1174 () Bool (= call_illinois.ite12 call_illinois.ite7))
(define-fun .def_1175 () Bool (or .def_942 .def_1174))
(define-fun .def_1171 () Bool (= call_illinois.ite12 call_illinois.ite11))
(define-fun .def_1172 () Bool (or param_e7 .def_1171))
(define-fun .def_1176 () Bool (and .def_1172 .def_1175))
(define-fun .def_1166 () Bool (= call_illinois.ite43 call_illinois.ite44))
(define-fun .def_1167 () Bool (or param_e6 .def_1166))
(define-fun .def_1163 () Bool (= call_illinois.ite41 call_illinois.ite44))
(define-fun .def_1164 () Bool (or .def_1148 .def_1163))
(define-fun .def_1160 () Bool (= call_illinois.ite33 call_illinois.ite34))
(define-fun .def_1161 () Bool (or param_e6 .def_1160))
(define-fun .def_1157 () Bool (= call_illinois.ite31 call_illinois.ite34))
(define-fun .def_1158 () Bool (or .def_1148 .def_1157))
(define-fun .def_1154 () Bool (= call_illinois.ite23 call_illinois.ite24))
(define-fun .def_1155 () Bool (or param_e6 .def_1154))
(define-fun .def_1151 () Bool (= call_illinois.ite21 call_illinois.ite24))
(define-fun .def_1152 () Bool (or .def_1148 .def_1151))
(define-fun .def_1147 () Bool (= call_illinois.ite13 call_illinois.ite6))
(define-fun .def_1149 () Bool (or .def_1147 .def_1148))
(define-fun .def_1143 () Bool (= call_illinois.ite13 call_illinois.ite12))
(define-fun .def_1145 () Bool (or .def_1143 param_e6))
(define-fun .def_1150 () Bool (and .def_1145 .def_1149))
(define-fun .def_1153 () Bool (and .def_1150 .def_1152))
(define-fun .def_1156 () Bool (and .def_1153 .def_1155))
(define-fun .def_1159 () Bool (and .def_1156 .def_1158))
(define-fun .def_1162 () Bool (and .def_1159 .def_1161))
(define-fun .def_1165 () Bool (and .def_1162 .def_1164))
(define-fun .def_1168 () Bool (and .def_1165 .def_1167))
(define-fun .def_1138 () Bool (= call_illinois.ite45 call_illinois.ite44))
(define-fun .def_1139 () Bool (or param_e5 .def_1138))
(define-fun .def_1134 () Bool (= call_illinois.ite40 call_illinois.ite45))
(define-fun .def_1135 () Bool (or .def_1123 .def_1134))
(define-fun .def_1131 () Bool (= call_illinois.ite25 call_illinois.ite24))
(define-fun .def_1132 () Bool (or param_e5 .def_1131))
(define-fun .def_1127 () Bool (= call_illinois.ite25 call_illinois.ite20))
(define-fun .def_1128 () Bool (or .def_1123 .def_1127))
(define-fun .def_1122 () Bool (= call_illinois.ite14 call_illinois.ite5))
(define-fun .def_1124 () Bool (or .def_1122 .def_1123))
(define-fun .def_1118 () Bool (= call_illinois.ite14 call_illinois.ite13))
(define-fun .def_1120 () Bool (or .def_1118 param_e5))
(define-fun .def_1125 () Bool (and .def_1120 .def_1124))
(define-fun .def_1129 () Bool (and .def_1125 .def_1128))
(define-fun .def_1133 () Bool (and .def_1129 .def_1132))
(define-fun .def_1136 () Bool (and .def_1133 .def_1135))
(define-fun .def_1140 () Bool (and .def_1136 .def_1139))
(define-fun .def_1113 () Bool (= call_illinois.ite35 call_illinois.ite34))
(define-fun .def_1114 () Bool (or param_e4 .def_1113))
(define-fun .def_1109 () Bool (= call_illinois.ite35 call_illinois.ite30))
(define-fun .def_1110 () Bool (or .def_1105 .def_1109))
(define-fun .def_1104 () Bool (= call_illinois.ite26 call_illinois.ite19))
(define-fun .def_1106 () Bool (or .def_1104 .def_1105))
(define-fun .def_1100 () Bool (= call_illinois.ite26 call_illinois.ite25))
(define-fun .def_1102 () Bool (or .def_1100 param_e4))
(define-fun .def_1107 () Bool (and .def_1102 .def_1106))
(define-fun .def_1111 () Bool (and .def_1107 .def_1110))
(define-fun .def_1115 () Bool (and .def_1111 .def_1114))
(define-fun .def_1095 () Bool (= call_illinois.ite46 call_illinois.ite45))
(define-fun .def_1096 () Bool (or param_e3 .def_1095))
(define-fun .def_1091 () Bool (= call_illinois.ite46 call_illinois.ite39))
(define-fun .def_1092 () Bool (or .def_1079 .def_1091))
(define-fun .def_1087 () Bool (= call_illinois.ite36 call_illinois.ite35))
(define-fun .def_1088 () Bool (or param_e3 .def_1087))
(define-fun .def_1083 () Bool (= call_illinois.ite36 call_illinois.ite29))
(define-fun .def_1084 () Bool (or .def_1079 .def_1083))
(define-fun .def_1078 () Bool (= call_illinois.ite15 call_illinois.ite4))
(define-fun .def_1080 () Bool (or .def_1078 .def_1079))
(define-fun .def_1074 () Bool (= call_illinois.ite15 call_illinois.ite14))
(define-fun .def_1076 () Bool (or .def_1074 param_e3))
(define-fun .def_1081 () Bool (and .def_1076 .def_1080))
(define-fun .def_1085 () Bool (and .def_1081 .def_1084))
(define-fun .def_1089 () Bool (and .def_1085 .def_1088))
(define-fun .def_1093 () Bool (and .def_1089 .def_1092))
(define-fun .def_1097 () Bool (and .def_1093 .def_1096))
(define-fun .def_1069 () Bool (= call_illinois.ite47 call_illinois.ite46))
(define-fun .def_1070 () Bool (or param_e2 .def_1069))
(define-fun .def_1065 () Bool (= call_illinois.ite38 call_illinois.ite47))
(define-fun .def_1066 () Bool (or .def_1051 .def_1065))
(define-fun .def_1060 () Bool (= call_illinois.ite27 call_illinois.ite26))
(define-fun .def_1061 () Bool (or param_e2 .def_1060))
(define-fun .def_1056 () Bool (= call_illinois.ite18 call_illinois.ite27))
(define-fun .def_1057 () Bool (or .def_1051 .def_1056))
(define-fun .def_1050 () Bool (= call_illinois.ite16 call_illinois.ite3))
(define-fun .def_1052 () Bool (or .def_1050 .def_1051))
(define-fun .def_1046 () Bool (= call_illinois.ite16 call_illinois.ite15))
(define-fun .def_1048 () Bool (or .def_1046 param_e2))
(define-fun .def_1053 () Bool (and .def_1048 .def_1052))
(define-fun .def_1058 () Bool (and .def_1053 .def_1057))
(define-fun .def_1062 () Bool (and .def_1058 .def_1061))
(define-fun .def_1067 () Bool (and .def_1062 .def_1066))
(define-fun .def_1071 () Bool (and .def_1067 .def_1070))
(define-fun .def_1041 () Bool (= call_illinois.ite37 call_illinois.ite36))
(define-fun .def_1042 () Bool (or param_e1 .def_1041))
(define-fun .def_1037 () Bool (= call_illinois.ite28 call_illinois.ite37))
(define-fun .def_1038 () Bool (or .def_1032 .def_1037))
(define-fun .def_1031 () Bool (= call_illinois.ite17 call_illinois.ite2))
(define-fun .def_1033 () Bool (or .def_1031 .def_1032))
(define-fun .def_1027 () Bool (= call_illinois.ite17 call_illinois.ite16))
(define-fun .def_1029 () Bool (or .def_1027 param_e1))
(define-fun .def_1034 () Bool (and .def_1029 .def_1033))
(define-fun .def_1039 () Bool (and .def_1034 .def_1038))
(define-fun .def_1043 () Bool (and .def_1039 .def_1042))
(define-fun .def_1021 () Bool (= call_illinois.ite param_init_invalid))
(define-fun .def_986 () Bool (<= param_init_invalid 0))
(define-fun .def_1022 () Bool (or .def_986 .def_1021))
(define-fun .def_1018 () Int (+ call_illinois.ite param_init_invalid))
(define-fun .def_1019 () Bool (= .def_1018 1))
(define-fun .def_987 () Bool (not .def_986))
(define-fun .def_1020 () Bool (or .def_987 .def_1019))
(define-fun .def_1023 () Bool (and .def_1020 .def_1022))
(define-fun .def_1016 () Bool (= env call_Sofar.Sofar))
(define-fun .def_1013 () Bool (= shared call_illinois.shared))
(define-fun .def_1009 () Bool (= exclusive call_illinois.exclusive))
(define-fun .def_1005 () Bool (= dirty call_illinois.dirty))
(define-fun .def_1002 () Bool (= invalid call_illinois.invalid))
(define-fun .def_997 () Bool (<= 0 dirty))
(define-fun .def_995 () Bool (not env))
(define-fun .def_998 () Bool (or .def_995 .def_997))
(define-fun .def_999 () Bool (= _OK_ .def_998))
(define-fun .def_1003 () Bool (and .def_999 .def_1002))
(define-fun .def_1006 () Bool (and .def_1003 .def_1005))
(define-fun .def_1010 () Bool (and .def_1006 .def_1009))
(define-fun .def_1014 () Bool (and .def_1010 .def_1013))
(define-fun .def_1017 () Bool (and .def_1014 .def_1016))
(define-fun .def_1024 () Bool (and .def_1017 .def_1023))
(define-fun .def_1044 () Bool (and .def_1024 .def_1043))
(define-fun .def_1072 () Bool (and .def_1044 .def_1071))
(define-fun .def_1098 () Bool (and .def_1072 .def_1097))
(define-fun .def_1116 () Bool (and .def_1098 .def_1115))
(define-fun .def_1141 () Bool (and .def_1116 .def_1140))
(define-fun .def_1169 () Bool (and .def_1141 .def_1168))
(define-fun .def_1177 () Bool (and .def_1169 .def_1176))
(define-fun .def_1184 () Bool (and .def_1177 .def_1183))
(define-fun .def_1186 () Bool (and .def_1184 .def_1185))
(define-fun .def_1188 () Bool (and .def_1186 .def_1187))
(define-fun .def_1190 () Bool (and .def_1188 .def_1189))
(define-fun .def_1192 () Bool (and .def_1190 .def_1191))
(define-fun .def_1262 () Bool (and .def_1192 .def_1261))
(define-fun .def_1264 () Bool (and .def_1262 .def_1263))
(define-fun .def_989 () Bool (and .def_987 call_excludes9.excludes))
(define-fun .def_991 () Bool (= .def_989 call_Sofar.flby))
(define-fun .def_983 () Bool (= call_illinois.flby4 0))
(define-fun .def_980 () Bool (= call_illinois.flby3 0))
(define-fun .def_977 () Bool (= call_illinois.flby2 0))
(define-fun .def_974 () Bool (= call_illinois.ite call_illinois.flby))
(define-fun .def_968 () Bool (= call_illinois.ite41 0))
(define-fun .def_961 () Bool (not call_illinois.g6))
(define-fun .def_969 () Bool (or .def_961 .def_968))
(define-fun .def_964 () Bool (= call_illinois.ite21 1))
(define-fun .def_965 () Bool (or .def_961 .def_964))
(define-fun .def_959 () Bool (= call_illinois.ite31 0))
(define-fun .def_962 () Bool (or .def_959 .def_961))
(define-fun .def_966 () Bool (and .def_962 .def_965))
(define-fun .def_970 () Bool (and .def_966 .def_969))
(define-fun .def_955 () Bool (= call_illinois.ite40 0))
(define-fun .def_953 () Bool (not call_illinois.g5))
(define-fun .def_956 () Bool (or .def_953 .def_955))
(define-fun .def_947 () Bool (= call_illinois.ite42 call_illinois.ite43))
(define-fun .def_950 () Bool (or .def_947 .def_949))
(define-fun .def_940 () Bool (= call_illinois.ite22 call_illinois.ite23))
(define-fun .def_943 () Bool (or .def_940 .def_942))
(define-fun .def_935 () Bool (= call_illinois.ite9 call_illinois.ite10))
(define-fun .def_936 () Bool (or .def_931 .def_935))
(define-fun .def_929 () Bool (= call_illinois.ite32 call_illinois.ite33))
(define-fun .def_932 () Bool (or .def_929 .def_931))
(define-fun .def_937 () Bool (and .def_932 .def_936))
(define-fun .def_944 () Bool (and .def_937 .def_943))
(define-fun .def_951 () Bool (and .def_944 .def_950))
(define-fun .def_957 () Bool (and .def_951 .def_956))
(define-fun .def_971 () Bool (and .def_957 .def_970))
(define-fun .def_975 () Bool (and .def_971 .def_974))
(define-fun .def_978 () Bool (and .def_975 .def_977))
(define-fun .def_981 () Bool (and .def_978 .def_980))
(define-fun .def_984 () Bool (and .def_981 .def_983))
(define-fun .def_992 () Bool (and .def_984 .def_991))
(define-fun .def_1265 () Bool (and .def_992 .def_1264))
(assert .def_1265)
